40 15
0 0 13 5
13 0 3 5
16 0 3 5
19 0 12 4
31 0 1 4
32 0 6 4
19 4 5 4
24 4 13 4
0 5 11 4
19 8 11 3
38 0 2 3
30 8 9 3
11 5 7 3
0 9 13 3
19 11 11 3
13 9 6 2
13 11 5 2
38 3 1 2
0 12 12 2
38 5 2 2
30 11 7 2
30 13 9 2
